jobs 122 
horizon 627 
PRECEDENCE:
1    
2    1
3    1
4    1
5    3
6    5
7    4
8    6
9    3
10    6
11    8 9
12    5
13    12
14    6
15    5
16    8
17    15
18    2
19    8
20    18
21    3
22    16
23    15
24    18
25    17
26    10 23
27    13
28    26
29    26
30    20
31    26
32    15
33    7
34    24
35    20
36    30
37    28
38    31
39    20
40    13
41    37
42    37
43    22 41
44    37
45    13
46    18
47    32
48    42
49    17 43
50    40
51    24
52    23
53    19
54    31
55    14
56    19
57    23
58    4
59    40
60    38
61    25
62    19
63    28
64    9
65    47
66    56
67    41 63
68    55
69    36 44
70    55 62
71    46
72    2
73    7
74    14
75    35 41
76    51 72
77    11 69 75
78    52
79    60
80    2
81    78
82    54
83    61
84    73
85    24
86    81
87    83
88    21 73
89    57 77
90    52 88
91    71 82
92    58 68 90
93    73
94    45 79
95    70 85 92
96    84 85
97    31 64
98    38 39 65
99    45 50
100    17 69 96
101    33 88 100
102    50 80
103    40 67
104    22 29 59
105    91
106    57 93
107    97 102
108    28
109    94 99
110    53 74 103
111    34 48 76
112    27 104 109
113    106 107 112
114    86 92 110
115    66 95 98
116    49 101 115
117    85 89 105
118    46 90 110
119    106 116 118
120    87 113 117
121    108 111 114
122    119 120 121
RESOURCEAVAILABILITY 15
REQUESTS/DURATIONS: 
 1 0 0 
 2 4 0 
 3 9 4 
 4 8 6 
 5 1 3 
 6 6 0 
 7 6 0 
 8 6 0 
 9 1 3 
 10 6 4 
 11 7 0 
 12 1 4 
 13 8 6 
 14 8 10 
 15 6 0 
 16 3 0 
 17 1 10 
 18 6 8 
 19 3 9 
 20 5 3 
 21 4 0 
 22 4 3 
 23 10 1 
 24 8 9 
 25 6 7 
 26 6 5 
 27 10 0 
 28 2 0 
 29 7 0 
 30 10 0 
 31 7 0 
 32 10 7 
 33 5 10 
 34 2 7 
 35 3 0 
 36 5 5 
 37 5 0 
 38 4 4 
 39 3 0 
 40 5 9 
 41 1 0 
 42 8 8 
 43 10 0 
 44 1 7 
 45 1 3 
 46 10 0 
 47 4 0 
 48 5 2 
 49 3 10 
 50 8 1 
 51 10 3 
 52 10 0 
 53 9 3 
 54 2 0 
 55 9 9 
 56 9 0 
 57 9 0 
 58 6 9 
 59 3 0 
 60 7 0 
 61 8 8 
 62 1 4 
 63 4 0 
 64 2 7 
 65 6 10 
 66 2 0 
 67 6 0 
 68 10 0 
 69 4 0 
 70 8 1 
 71 2 10 
 72 1 4 
 73 5 6 
 74 1 0 
 75 4 6 
 76 6 0 
 77 3 8 
 78 7 3 
 79 10 0 
 80 7 0 
 81 6 0 
 82 3 3 
 83 8 0 
 84 1 1 
 85 2 0 
 86 6 10 
 87 4 0 
 88 4 0 
 89 8 6 
 90 1 7 
 91 4 0 
 92 2 9 
 93 8 0 
 94 1 2 
 95 8 0 
 96 9 2 
 97 4 0 
 98 3 10 
 99 10 0 
100 7 0 
101 1 2 
102 1 10 
103 4 8 
104 1 1 
105 7 7 
106 2 1 
107 8 10 
108 4 10 
109 2 4 
110 9 4 
111 9 0 
112 5 0 
113 1 0 
114 7 0 
115 3 1 
116 3 6 
117 5 8 
118 5 0 
119 7 9 
120 6 4 
121 5 0 
122 0 0 
